c Sudoku solution
p cnf 729 0
128 0
136 0
144 0
212 0
258 0
324 0
357 0
389 0
445 0
476 0
561 0
579 0
613 0
695 0
733 0
223 0
754 0
777 0
781 0
826 0
516 0
883 0
899 0
938 0
418 0
969 0
986 0
656 0
552 0
525 0
335 0
311 0
798 0
378 0
173 0
534 0
746 0
762 0
729 0
715 0
119 0
237 0
249 0
151 0
342 0
165 0
363 0
266 0
396 0
459 0
639 0
855 0
975 0
953 0
543 0
493 0
671 0
597 0
588 0
291 0
872 0
994 0
831 0
922 0
941 0
814 0
917 0
421 0
432 0
627 0
484 0
682 0
467 0
664 0
648 0
847 0
868 0
274 0
285 0
187 0
192 0
